webassembly/ejemplos_dzn/7/folder7_json_10.dzn
TERM = { '.', 's(2)', 'in_1', 'local_0', 'local_1', 's(1)', 's(0)', 'in_0'};
null = '.';
s = 7;
n = 9;
ndeps = 2;
max_registers_sz = 4;
NR = 1;
registers = [|'local_1', 'local_0'|];
dependencies = [|'i32.store_0', 'call[function_index(0)]_1', |'call[function_index(0)]_1', 'i32.store8_6'|];
GET_ENUM = { GET1, GET2, GET3, GET4, GET5};
SET_ENUM = { SET1, SET2, SET3, SET4, SET5};
TEE_ENUM = { TEE1, TEE2, TEE3, TEE4, TEE5};
N = 4;
OP = { 'call[function_index(0)]_1', 'i32.store_0', 'i32.store8_6', 'local.get_0' };
in_ops = [0, 2, 2, 0 ];
out_ops = [3, 0, 0, 1 ];
in1 = ['.', 'in_0', 'local_0', '.' ];
in2 = ['.', 'in_1', 's(2)', '.' ];
in3 = ['.', '.', '.', '.' ];
out1 = ['s(2)', '.', '.', 'local_0' ];
out2 = ['s(1)', '.', '.', '.' ];
out3 = ['s(0)', '.', '.', '.' ];
comm = [false, false, false, false ];
gas = [1, 1, 1, 1 ];
sz = [1, 1, 1, 1 ];
stor = [true, true, true, false ];
lb = [ 1, 1, 1, 1 ];
ub = [ 7, 7, 7, 7 ];
startstack = [ 'in_0', 'in_1', null, null, null, null, null, null, null ];
endstack = [ 's(1)', 's(0)', null, null, null, null, null, null, null ];
