webassembly/ejemplos_results/7/folder7_json_10.txt
value = 7;
fgas = [1, 1, 1, 1, 1, 1, 1];
fsize = [1, 1, 1, 1, 1, 1, 1];
states = 
[|    in_0,   in_1,     '.',     '.',     '.',  '.',  '.', '.', '.'
 | local_0,   in_0,    in_1,     '.',     '.',  '.',  '.', '.', '.'
 |  's(2)', 's(1)',  's(0)', local_0,    in_0, in_1,  '.', '.', '.'
 | local_0, 's(2)',  's(1)',  's(0)', local_0, in_0, in_1, '.', '.'
 | local_0, 's(2)',  's(1)',  's(0)', local_0, in_0, in_1, '.', '.'
 |    in_0,   in_1, local_0,    in_0,    in_1,  '.',  '.', '.', '.'
 |    in_0,   in_1,    in_1,     '.',     '.',  '.',  '.', '.', '.'
 |  's(1)', 's(0)',     '.',     '.',     '.',  '.',  '.', '.', '.'
 |];
register_states = 
[| local_1, '.', '.', '.', '.'
 | local_1, '.', '.', '.', '.'
 | local_1, '.', '.', '.', '.'
 | local_1, '.', '.', '.', '.'
 | local_0, '.', '.', '.', '.'
 | local_0, '.', '.', '.', '.'
 | local_0, '.', '.', '.', '.'
 | local_0, '.', '.', '.', '.'
 |];
program = [O('local.get_0'), O('call[function_index(0)]_1'), O('local.get_0'), TEE(TEE1), O('i32.store8_6'), O('i32.store_0'), O('i32.store_0')];
% time elapsed: 0.11 s
----------
value = 6;
fgas = [1, 1, 1, 1, 1, 1, 0];
fsize = [1, 1, 1, 1, 1, 1, 1];
states = 
[|    in_0,   in_1,    '.',    '.',  '.',  '.', '.', '.', '.'
 |  's(2)', 's(1)', 's(0)',   in_0, in_1,  '.', '.', '.', '.'
 | local_0, 's(2)', 's(1)', 's(0)', in_0, in_1, '.', '.', '.'
 |  's(2)', 's(1)', 's(0)',   in_0, in_1,  '.', '.', '.', '.'
 | local_0, 's(2)', 's(1)', 's(0)', in_0, in_1, '.', '.', '.'
 |    in_0,   in_1,   in_0,   in_1,  '.',  '.', '.', '.', '.'
 |  's(1)', 's(0)',    '.',    '.',  '.',  '.', '.', '.', '.'
 |  's(1)', 's(0)',    '.',    '.',  '.',  '.', '.', '.', '.'
 |];
register_states = 
[| local_1, '.', '.', '.', '.'
 | local_1, '.', '.', '.', '.'
 | local_1, '.', '.', '.', '.'
 | local_0, '.', '.', '.', '.'
 | local_0, '.', '.', '.', '.'
 | local_0, '.', '.', '.', '.'
 | local_0, '.', '.', '.', '.'
 | local_0, '.', '.', '.', '.'
 |];
program = [O('call[function_index(0)]_1'), O('local.get_0'), S(SET1), O('local.get_0'), O('i32.store8_6'), O('i32.store_0'), NOP];
% time elapsed: 0.11 s
----------
value = 5;
fgas = [1, 1, 1, 1, 1, 0, 0];
fsize = [1, 1, 1, 1, 1, 1, 1];
states = 
[|    in_0,   in_1,    '.',    '.', '.', '.', '.', '.', '.'
 |     '.',    '.',    '.',    '.', '.', '.', '.', '.', '.'
 |  's(2)', 's(1)', 's(0)',    '.', '.', '.', '.', '.', '.'
 | local_0, 's(2)', 's(1)', 's(0)', '.', '.', '.', '.', '.'
 | local_0, 's(2)', 's(1)', 's(0)', '.', '.', '.', '.', '.'
 |  's(1)', 's(0)',    '.',    '.', '.', '.', '.', '.', '.'
 |  's(1)', 's(0)',    '.',    '.', '.', '.', '.', '.', '.'
 |  's(1)', 's(0)',    '.',    '.', '.', '.', '.', '.', '.'
 |];
register_states = 
[| local_1, '.', '.', '.', '.'
 | local_1, '.', '.', '.', '.'
 | local_1, '.', '.', '.', '.'
 | local_1, '.', '.', '.', '.'
 | local_0, '.', '.', '.', '.'
 | local_0, '.', '.', '.', '.'
 | local_0, '.', '.', '.', '.'
 | local_0, '.', '.', '.', '.'
 |];
program = [O('i32.store_0'), O('call[function_index(0)]_1'), O('local.get_0'), TEE(TEE1), O('i32.store8_6'), NOP, NOP];
% time elapsed: 0.11 s
----------
==========
% time elapsed: 0.11 s
% [value > 4]
